;; translated from ./lustre/PRODUCER_CONSUMMER_luke_2.vmt
;; original benchmark available at: https://es-static.fbk.eu/people/griggio/ic3ia/index.html
;; author: Alberto Griggio <griggio@fbk.eu>
(set-logic HORN)
(declare-fun state (Int Int Bool Bool Bool Bool Bool Bool Int Int Int Int Int Int Int Int Int Int Int Int Int Int Int Bool Int Int Int Int Int Bool Int Int Int Int Int Int Int Bool Bool Bool) Bool)
(assert (forall ((|call__PRODUCER_CONSUMMER_.xite__AT0| Int) (|call__PRODUCER_CONSUMMER_.xite2__AT0| Int) (|call__PRODUCER_CONSUMMER_.garde1__AT0| Bool) (|call__PRODUCER_CONSUMMER_.garde2__AT0| Bool) (|call__PRODUCER_CONSUMMER_.garde3__AT0| Bool) (|param_a_init__AT1| Int) (|param_etat1__AT0| Bool) (|param_etat3__AT0| Bool) (|call__PRODUCER_CONSUMMER_.xite10__AT0| Int) (|call__PRODUCER_CONSUMMER_.xite11__AT0| Int) (|call__PRODUCER_CONSUMMER_.flby__AT0| Int) (|call__PRODUCER_CONSUMMER_.a__AT0| Int) (|call__PRODUCER_CONSUMMER_.flby2__AT0| Int) (|param_a_init__AT0| Int) (|call__PRODUCER_CONSUMMER_.flby3__AT0| Int) (|call__PRODUCER_CONSUMMER_.flby4__AT0| Int) (|call__PRODUCER_CONSUMMER_.flby5__AT0| Int) (|call_excludes3.excludes__AT0| Bool) (|call_Sofar.flby__AT0| Bool) (|call_First.flby__AT0| Int) (|_OK___AT0| Bool) (|env__AT0| Bool) (|a__AT0| Int) (|o1__AT0| Int) (|o2__AT0| Int) (|i__AT0| Int) (|call__PRODUCER_CONSUMMER_.i__AT0| Int) (|b__AT0| Int) (|call__PRODUCER_CONSUMMER_.b__AT0| Int) (|call__PRODUCER_CONSUMMER_.o1__AT0| Int) (|call__PRODUCER_CONSUMMER_.o2__AT0| Int) (|call_First.First__AT0| Int) (|call_Sofar.Sofar__AT0| Bool) (|call__PRODUCER_CONSUMMER_.xite7__AT0| Int) (|call__PRODUCER_CONSUMMER_.xite6__AT0| Int) (|call__PRODUCER_CONSUMMER_.xite3__AT0| Int) (|call__PRODUCER_CONSUMMER_.xite5__AT0| Int) (|call__PRODUCER_CONSUMMER_.xite4__AT0| Int) (|call__PRODUCER_CONSUMMER_.xite9__AT1| Int) (|param_etat2__AT1| Bool) (|call__PRODUCER_CONSUMMER_.xite8__AT1| Int) (|call__PRODUCER_CONSUMMER_.xite2__AT1| Int) (|param_etat1__AT1| Bool) (|call__PRODUCER_CONSUMMER_.xite__AT1| Int) (|call__PRODUCER_CONSUMMER_.xite11__AT1| Int) (|param_etat3__AT1| Bool) (|call__PRODUCER_CONSUMMER_.xite10__AT1| Int) (|call__PRODUCER_CONSUMMER_.garde1__AT1| Bool) (|call__PRODUCER_CONSUMMER_.xite3__AT1| Int) (|call__PRODUCER_CONSUMMER_.xite4__AT1| Int) (|call__PRODUCER_CONSUMMER_.garde2__AT1| Bool) (|call__PRODUCER_CONSUMMER_.xite5__AT1| Int) (|call__PRODUCER_CONSUMMER_.garde3__AT1| Bool) (|call__PRODUCER_CONSUMMER_.flby__AT1| Int) (|call__PRODUCER_CONSUMMER_.xite7__AT1| Int) (|call__PRODUCER_CONSUMMER_.flby2__AT1| Int) (|call__PRODUCER_CONSUMMER_.flby3__AT1| Int) (|call__PRODUCER_CONSUMMER_.flby4__AT1| Int) (|call__PRODUCER_CONSUMMER_.flby5__AT1| Int) (|call_excludes3.excludes__AT1| Bool) (|call_Sofar.flby__AT1| Bool) (|call_First.flby__AT1| Int) (|_OK___AT1| Bool) (|env__AT1| Bool) (|a__AT1| Int) (|o1__AT1| Int) (|o2__AT1| Int) (|i__AT1| Int) (|call__PRODUCER_CONSUMMER_.i__AT1| Int) (|b__AT1| Int) (|call__PRODUCER_CONSUMMER_.b__AT1| Int) (|call__PRODUCER_CONSUMMER_.a__AT1| Int) (|call__PRODUCER_CONSUMMER_.o1__AT1| Int) (|call__PRODUCER_CONSUMMER_.o2__AT1| Int) (|call_First.First__AT1| Int) (|call_Sofar.Sofar__AT1| Bool) (|call__PRODUCER_CONSUMMER_.xite6__AT1| Int) (|call__PRODUCER_CONSUMMER_.xite8__AT0| Int) (|call__PRODUCER_CONSUMMER_.xite9__AT0| Int) (|param_etat2__AT0| Bool)) (=> (let ((.def_123 (= call__PRODUCER_CONSUMMER_.xite9__AT0 call__PRODUCER_CONSUMMER_.xite8__AT0)))
(let ((.def_44 (not param_etat2__AT0)))
(let ((.def_124 (or .def_44 .def_123)))
(let ((.def_119 (= call__PRODUCER_CONSUMMER_.xite2__AT0 call__PRODUCER_CONSUMMER_.xite__AT0)))
(let ((.def_53 (not param_etat1__AT0)))
(let ((.def_120 (or .def_53 .def_119)))
(let ((.def_125 (and .def_120 .def_124)))
(let ((.def_115 (not param_etat3__AT0)))
(let ((.def_114 (= call__PRODUCER_CONSUMMER_.xite11__AT0 call__PRODUCER_CONSUMMER_.xite10__AT0)))
(let ((.def_116 (or .def_114 .def_115)))
(let ((.def_126 (and .def_116 .def_125)))
(let ((.def_111 (= call__PRODUCER_CONSUMMER_.a__AT0 call__PRODUCER_CONSUMMER_.flby__AT0)))
(let ((.def_127 (and .def_111 .def_126)))
(let ((.def_110 (= call__PRODUCER_CONSUMMER_.flby2__AT0 0)))
(let ((.def_128 (and .def_110 .def_127)))
(let ((.def_109 (= call__PRODUCER_CONSUMMER_.flby3__AT0 param_a_init__AT0)))
(let ((.def_129 (and .def_109 .def_128)))
(let ((.def_108 (= call__PRODUCER_CONSUMMER_.flby4__AT0 0)))
(let ((.def_130 (and .def_108 .def_129)))
(let ((.def_107 (= call__PRODUCER_CONSUMMER_.flby5__AT0 0)))
(let ((.def_131 (and .def_107 .def_130)))
(let ((.def_106 (= call_Sofar.flby__AT0 call_excludes3.excludes__AT0)))
(let ((.def_132 (and .def_106 .def_131)))
(let ((.def_105 (= call_First.flby__AT0 param_a_init__AT0)))
(let ((.def_133 (and .def_105 .def_132)))
(let ((.def_84 (not env__AT0)))
(let ((.def_80 (* (- 1) a__AT0)))
(let ((.def_81 (+ o1__AT0 .def_80)))
(let ((.def_82 (+ o2__AT0 .def_81)))
(let ((.def_83 (<= .def_82 0)))
(let ((.def_85 (or .def_83 .def_84)))
(let ((.def_87 (= .def_85 _OK___AT0)))
(let ((.def_73 (= call__PRODUCER_CONSUMMER_.i__AT0 i__AT0)))
(let ((.def_88 (and .def_73 .def_87)))
(let ((.def_71 (= call__PRODUCER_CONSUMMER_.b__AT0 b__AT0)))
(let ((.def_89 (and .def_71 .def_88)))
(let ((.def_69 (= call__PRODUCER_CONSUMMER_.a__AT0 a__AT0)))
(let ((.def_90 (and .def_69 .def_89)))
(let ((.def_67 (= call__PRODUCER_CONSUMMER_.o1__AT0 o1__AT0)))
(let ((.def_91 (and .def_67 .def_90)))
(let ((.def_65 (= call__PRODUCER_CONSUMMER_.o2__AT0 o2__AT0)))
(let ((.def_92 (and .def_65 .def_91)))
(let ((.def_59 (<= call_First.First__AT0 0)))
(let ((.def_60 (not .def_59)))
(let ((.def_61 (and call_Sofar.Sofar__AT0 .def_60)))
(let ((.def_63 (= .def_61 env__AT0)))
(let ((.def_93 (and .def_63 .def_92)))
(let ((.def_55 (= call__PRODUCER_CONSUMMER_.xite6__AT0 call__PRODUCER_CONSUMMER_.xite7__AT0)))
(let ((.def_56 (or param_etat1__AT0 .def_55)))
(let ((.def_52 (= call__PRODUCER_CONSUMMER_.xite7__AT0 call__PRODUCER_CONSUMMER_.xite3__AT0)))
(let ((.def_54 (or .def_52 .def_53)))
(let ((.def_57 (and .def_54 .def_56)))
(let ((.def_94 (and .def_57 .def_93)))
(let ((.def_47 (= call__PRODUCER_CONSUMMER_.xite6__AT0 call__PRODUCER_CONSUMMER_.xite5__AT0)))
(let ((.def_48 (or param_etat2__AT0 .def_47)))
(let ((.def_43 (= call__PRODUCER_CONSUMMER_.xite6__AT0 call__PRODUCER_CONSUMMER_.xite4__AT0)))
(let ((.def_45 (or .def_43 .def_44)))
(let ((.def_49 (and .def_45 .def_48)))
(let ((.def_95 (and .def_49 .def_94)))
(let ((.def_40 (= call__PRODUCER_CONSUMMER_.flby__AT0 call__PRODUCER_CONSUMMER_.i__AT0)))
(let ((.def_96 (and .def_40 .def_95)))
(let ((.def_37 (= call__PRODUCER_CONSUMMER_.flby2__AT0 call__PRODUCER_CONSUMMER_.b__AT0)))
(let ((.def_97 (and .def_37 .def_96)))
(let ((.def_34 (= call__PRODUCER_CONSUMMER_.flby3__AT0 call__PRODUCER_CONSUMMER_.a__AT0)))
(let ((.def_98 (and .def_34 .def_97)))
(let ((.def_31 (= call__PRODUCER_CONSUMMER_.flby4__AT0 call__PRODUCER_CONSUMMER_.o1__AT0)))
(let ((.def_99 (and .def_31 .def_98)))
(let ((.def_28 (= call__PRODUCER_CONSUMMER_.flby5__AT0 call__PRODUCER_CONSUMMER_.o2__AT0)))
(let ((.def_100 (and .def_28 .def_99)))
(let ((.def_20 (and param_etat2__AT0 param_etat1__AT0)))
(let ((.def_19 (and param_etat3__AT0 param_etat1__AT0)))
(let ((.def_21 (or .def_19 .def_20)))
(let ((.def_17 (and param_etat3__AT0 param_etat2__AT0)))
(let ((.def_22 (or .def_17 .def_21)))
(let ((.def_23 (not .def_22)))
(let ((.def_25 (= .def_23 call_excludes3.excludes__AT0)))
(let ((.def_101 (and .def_25 .def_100)))
(let ((.def_14 (= call_Sofar.flby__AT0 call_Sofar.Sofar__AT0)))
(let ((.def_102 (and .def_14 .def_101)))
(let ((.def_11 (= call_First.flby__AT0 call_First.First__AT0)))
(let ((.def_103 (and .def_11 .def_102)))
(let ((.def_134 (and .def_103 .def_133)))
.def_134)))))))))))))))))))))))))))))))))))))))))))))))))))))))))))))))))))))))))))))))))) (state |call_First.flby__AT0| |call_First.First__AT0| |call_Sofar.flby__AT0| |call_Sofar.Sofar__AT0| |param_etat3__AT0| |param_etat2__AT0| |param_etat1__AT0| |call_excludes3.excludes__AT0| |call__PRODUCER_CONSUMMER_.flby5__AT0| |call__PRODUCER_CONSUMMER_.o2__AT0| |call__PRODUCER_CONSUMMER_.flby4__AT0| |call__PRODUCER_CONSUMMER_.o1__AT0| |call__PRODUCER_CONSUMMER_.flby3__AT0| |call__PRODUCER_CONSUMMER_.a__AT0| |call__PRODUCER_CONSUMMER_.flby2__AT0| |call__PRODUCER_CONSUMMER_.b__AT0| |call__PRODUCER_CONSUMMER_.flby__AT0| |call__PRODUCER_CONSUMMER_.i__AT0| |call__PRODUCER_CONSUMMER_.xite6__AT0| |call__PRODUCER_CONSUMMER_.xite4__AT0| |call__PRODUCER_CONSUMMER_.xite5__AT0| |call__PRODUCER_CONSUMMER_.xite7__AT0| |call__PRODUCER_CONSUMMER_.xite3__AT0| |env__AT0| |o2__AT0| |o1__AT0| |a__AT0| |b__AT0| |i__AT0| |_OK___AT0| |param_a_init__AT0| |call__PRODUCER_CONSUMMER_.xite11__AT0| |call__PRODUCER_CONSUMMER_.xite10__AT0| |call__PRODUCER_CONSUMMER_.xite2__AT0| |call__PRODUCER_CONSUMMER_.xite__AT0| |call__PRODUCER_CONSUMMER_.xite9__AT0| |call__PRODUCER_CONSUMMER_.xite8__AT0| |call__PRODUCER_CONSUMMER_.garde1__AT0| |call__PRODUCER_CONSUMMER_.garde2__AT0| |call__PRODUCER_CONSUMMER_.garde3__AT0|))))
(assert (forall ((|call__PRODUCER_CONSUMMER_.xite__AT0| Int) (|call__PRODUCER_CONSUMMER_.xite2__AT0| Int) (|call__PRODUCER_CONSUMMER_.garde1__AT0| Bool) (|call__PRODUCER_CONSUMMER_.garde2__AT0| Bool) (|call__PRODUCER_CONSUMMER_.garde3__AT0| Bool) (|param_a_init__AT1| Int) (|param_etat1__AT0| Bool) (|param_etat3__AT0| Bool) (|call__PRODUCER_CONSUMMER_.xite10__AT0| Int) (|call__PRODUCER_CONSUMMER_.xite11__AT0| Int) (|call__PRODUCER_CONSUMMER_.flby__AT0| Int) (|call__PRODUCER_CONSUMMER_.a__AT0| Int) (|call__PRODUCER_CONSUMMER_.flby2__AT0| Int) (|param_a_init__AT0| Int) (|call__PRODUCER_CONSUMMER_.flby3__AT0| Int) (|call__PRODUCER_CONSUMMER_.flby4__AT0| Int) (|call__PRODUCER_CONSUMMER_.flby5__AT0| Int) (|call_excludes3.excludes__AT0| Bool) (|call_Sofar.flby__AT0| Bool) (|call_First.flby__AT0| Int) (|_OK___AT0| Bool) (|env__AT0| Bool) (|a__AT0| Int) (|o1__AT0| Int) (|o2__AT0| Int) (|i__AT0| Int) (|call__PRODUCER_CONSUMMER_.i__AT0| Int) (|b__AT0| Int) (|call__PRODUCER_CONSUMMER_.b__AT0| Int) (|call__PRODUCER_CONSUMMER_.o1__AT0| Int) (|call__PRODUCER_CONSUMMER_.o2__AT0| Int) (|call_First.First__AT0| Int) (|call_Sofar.Sofar__AT0| Bool) (|call__PRODUCER_CONSUMMER_.xite7__AT0| Int) (|call__PRODUCER_CONSUMMER_.xite6__AT0| Int) (|call__PRODUCER_CONSUMMER_.xite3__AT0| Int) (|call__PRODUCER_CONSUMMER_.xite5__AT0| Int) (|call__PRODUCER_CONSUMMER_.xite4__AT0| Int) (|call__PRODUCER_CONSUMMER_.xite9__AT1| Int) (|param_etat2__AT1| Bool) (|call__PRODUCER_CONSUMMER_.xite8__AT1| Int) (|call__PRODUCER_CONSUMMER_.xite2__AT1| Int) (|param_etat1__AT1| Bool) (|call__PRODUCER_CONSUMMER_.xite__AT1| Int) (|call__PRODUCER_CONSUMMER_.xite11__AT1| Int) (|param_etat3__AT1| Bool) (|call__PRODUCER_CONSUMMER_.xite10__AT1| Int) (|call__PRODUCER_CONSUMMER_.garde1__AT1| Bool) (|call__PRODUCER_CONSUMMER_.xite3__AT1| Int) (|call__PRODUCER_CONSUMMER_.xite4__AT1| Int) (|call__PRODUCER_CONSUMMER_.garde2__AT1| Bool) (|call__PRODUCER_CONSUMMER_.xite5__AT1| Int) (|call__PRODUCER_CONSUMMER_.garde3__AT1| Bool) (|call__PRODUCER_CONSUMMER_.flby__AT1| Int) (|call__PRODUCER_CONSUMMER_.xite7__AT1| Int) (|call__PRODUCER_CONSUMMER_.flby2__AT1| Int) (|call__PRODUCER_CONSUMMER_.flby3__AT1| Int) (|call__PRODUCER_CONSUMMER_.flby4__AT1| Int) (|call__PRODUCER_CONSUMMER_.flby5__AT1| Int) (|call_excludes3.excludes__AT1| Bool) (|call_Sofar.flby__AT1| Bool) (|call_First.flby__AT1| Int) (|_OK___AT1| Bool) (|env__AT1| Bool) (|a__AT1| Int) (|o1__AT1| Int) (|o2__AT1| Int) (|i__AT1| Int) (|call__PRODUCER_CONSUMMER_.i__AT1| Int) (|b__AT1| Int) (|call__PRODUCER_CONSUMMER_.b__AT1| Int) (|call__PRODUCER_CONSUMMER_.a__AT1| Int) (|call__PRODUCER_CONSUMMER_.o1__AT1| Int) (|call__PRODUCER_CONSUMMER_.o2__AT1| Int) (|call_First.First__AT1| Int) (|call_Sofar.Sofar__AT1| Bool) (|call__PRODUCER_CONSUMMER_.xite6__AT1| Int) (|call__PRODUCER_CONSUMMER_.xite8__AT0| Int) (|call__PRODUCER_CONSUMMER_.xite9__AT0| Int) (|param_etat2__AT0| Bool)) (=> (and (state |call_First.flby__AT0| |call_First.First__AT0| |call_Sofar.flby__AT0| |call_Sofar.Sofar__AT0| |param_etat3__AT0| |param_etat2__AT0| |param_etat1__AT0| |call_excludes3.excludes__AT0| |call__PRODUCER_CONSUMMER_.flby5__AT0| |call__PRODUCER_CONSUMMER_.o2__AT0| |call__PRODUCER_CONSUMMER_.flby4__AT0| |call__PRODUCER_CONSUMMER_.o1__AT0| |call__PRODUCER_CONSUMMER_.flby3__AT0| |call__PRODUCER_CONSUMMER_.a__AT0| |call__PRODUCER_CONSUMMER_.flby2__AT0| |call__PRODUCER_CONSUMMER_.b__AT0| |call__PRODUCER_CONSUMMER_.flby__AT0| |call__PRODUCER_CONSUMMER_.i__AT0| |call__PRODUCER_CONSUMMER_.xite6__AT0| |call__PRODUCER_CONSUMMER_.xite4__AT0| |call__PRODUCER_CONSUMMER_.xite5__AT0| |call__PRODUCER_CONSUMMER_.xite7__AT0| |call__PRODUCER_CONSUMMER_.xite3__AT0| |env__AT0| |o2__AT0| |o1__AT0| |a__AT0| |b__AT0| |i__AT0| |_OK___AT0| |param_a_init__AT0| |call__PRODUCER_CONSUMMER_.xite11__AT0| |call__PRODUCER_CONSUMMER_.xite10__AT0| |call__PRODUCER_CONSUMMER_.xite2__AT0| |call__PRODUCER_CONSUMMER_.xite__AT0| |call__PRODUCER_CONSUMMER_.xite9__AT0| |call__PRODUCER_CONSUMMER_.xite8__AT0| |call__PRODUCER_CONSUMMER_.garde1__AT0| |call__PRODUCER_CONSUMMER_.garde2__AT0| |call__PRODUCER_CONSUMMER_.garde3__AT0|) (let ((.def_310 (= call__PRODUCER_CONSUMMER_.o1__AT0 call__PRODUCER_CONSUMMER_.xite9__AT1)))
(let ((.def_311 (or param_etat2__AT1 .def_310)))
(let ((.def_308 (= call__PRODUCER_CONSUMMER_.xite9__AT1 call__PRODUCER_CONSUMMER_.xite8__AT1)))
(let ((.def_170 (not param_etat2__AT1)))
(let ((.def_309 (or .def_170 .def_308)))
(let ((.def_312 (and .def_309 .def_311)))
(let ((.def_305 (= call__PRODUCER_CONSUMMER_.i__AT0 call__PRODUCER_CONSUMMER_.xite2__AT1)))
(let ((.def_306 (or param_etat1__AT1 .def_305)))
(let ((.def_303 (= call__PRODUCER_CONSUMMER_.xite2__AT1 call__PRODUCER_CONSUMMER_.xite__AT1)))
(let ((.def_179 (not param_etat1__AT1)))
(let ((.def_304 (or .def_179 .def_303)))
(let ((.def_307 (and .def_304 .def_306)))
(let ((.def_313 (and .def_307 .def_312)))
(let ((.def_300 (= call__PRODUCER_CONSUMMER_.o2__AT0 call__PRODUCER_CONSUMMER_.xite11__AT1)))
(let ((.def_301 (or param_etat3__AT1 .def_300)))
(let ((.def_298 (= call__PRODUCER_CONSUMMER_.xite11__AT1 call__PRODUCER_CONSUMMER_.xite10__AT1)))
(let ((.def_297 (not param_etat3__AT1)))
(let ((.def_299 (or .def_297 .def_298)))
(let ((.def_302 (and .def_299 .def_301)))
(let ((.def_314 (and .def_302 .def_313)))
(let ((.def_294 (= call__PRODUCER_CONSUMMER_.i__AT0 call__PRODUCER_CONSUMMER_.xite__AT1)))
(let ((.def_295 (or call__PRODUCER_CONSUMMER_.garde1__AT1 .def_294)))
(let ((.def_290 (* (- 1) call__PRODUCER_CONSUMMER_.xite__AT1)))
(let ((.def_291 (+ call__PRODUCER_CONSUMMER_.i__AT0 .def_290)))
(let ((.def_292 (= .def_291 1)))
(let ((.def_280 (not call__PRODUCER_CONSUMMER_.garde1__AT1)))
(let ((.def_293 (or .def_280 .def_292)))
(let ((.def_296 (and .def_293 .def_295)))
(let ((.def_315 (and .def_296 .def_314)))
(let ((.def_282 (= call__PRODUCER_CONSUMMER_.b__AT0 call__PRODUCER_CONSUMMER_.xite3__AT1)))
(let ((.def_283 (or call__PRODUCER_CONSUMMER_.garde1__AT1 .def_282)))
(let ((.def_277 (* (- 1) call__PRODUCER_CONSUMMER_.xite3__AT1)))
(let ((.def_278 (+ call__PRODUCER_CONSUMMER_.b__AT0 .def_277)))
(let ((.def_279 (= .def_278 (- 1))))
(let ((.def_281 (or .def_279 .def_280)))
(let ((.def_284 (and .def_281 .def_283)))
(let ((.def_273 (* (- 1) call__PRODUCER_CONSUMMER_.xite4__AT1)))
(let ((.def_274 (+ call__PRODUCER_CONSUMMER_.b__AT0 .def_273)))
(let ((.def_275 (= .def_274 1)))
(let ((.def_260 (not call__PRODUCER_CONSUMMER_.garde2__AT1)))
(let ((.def_276 (or .def_260 .def_275)))
(let ((.def_285 (and .def_276 .def_284)))
(let ((.def_271 (= call__PRODUCER_CONSUMMER_.b__AT0 call__PRODUCER_CONSUMMER_.xite4__AT1)))
(let ((.def_272 (or call__PRODUCER_CONSUMMER_.garde2__AT1 .def_271)))
(let ((.def_286 (and .def_272 .def_285)))
(let ((.def_267 (* (- 1) call__PRODUCER_CONSUMMER_.xite5__AT1)))
(let ((.def_268 (+ call__PRODUCER_CONSUMMER_.b__AT0 .def_267)))
(let ((.def_269 (= .def_268 1)))
(let ((.def_251 (not call__PRODUCER_CONSUMMER_.garde3__AT1)))
(let ((.def_270 (or .def_251 .def_269)))
(let ((.def_287 (and .def_270 .def_286)))
(let ((.def_265 (= call__PRODUCER_CONSUMMER_.b__AT0 call__PRODUCER_CONSUMMER_.xite5__AT1)))
(let ((.def_266 (or call__PRODUCER_CONSUMMER_.garde3__AT1 .def_265)))
(let ((.def_288 (and .def_266 .def_287)))
(let ((.def_316 (and .def_288 .def_315)))
(let ((.def_262 (= call__PRODUCER_CONSUMMER_.o1__AT0 call__PRODUCER_CONSUMMER_.xite8__AT1)))
(let ((.def_263 (or call__PRODUCER_CONSUMMER_.garde2__AT1 .def_262)))
(let ((.def_257 (* (- 1) call__PRODUCER_CONSUMMER_.xite8__AT1)))
(let ((.def_258 (+ call__PRODUCER_CONSUMMER_.o1__AT0 .def_257)))
(let ((.def_259 (= .def_258 (- 1))))
(let ((.def_261 (or .def_259 .def_260)))
(let ((.def_264 (and .def_261 .def_263)))
(let ((.def_317 (and .def_264 .def_316)))
(let ((.def_253 (= call__PRODUCER_CONSUMMER_.o2__AT0 call__PRODUCER_CONSUMMER_.xite10__AT1)))
(let ((.def_254 (or call__PRODUCER_CONSUMMER_.garde3__AT1 .def_253)))
(let ((.def_248 (* (- 1) call__PRODUCER_CONSUMMER_.xite10__AT1)))
(let ((.def_249 (+ call__PRODUCER_CONSUMMER_.o2__AT0 .def_248)))
(let ((.def_250 (= .def_249 (- 1))))
(let ((.def_252 (or .def_250 .def_251)))
(let ((.def_255 (and .def_252 .def_254)))
(let ((.def_318 (and .def_255 .def_317)))
(let ((.def_244 (<= 1 call__PRODUCER_CONSUMMER_.i__AT0)))
(let ((.def_246 (= .def_244 call__PRODUCER_CONSUMMER_.garde1__AT1)))
(let ((.def_319 (and .def_246 .def_318)))
(let ((.def_239 (<= 1 call__PRODUCER_CONSUMMER_.b__AT0)))
(let ((.def_243 (= .def_239 call__PRODUCER_CONSUMMER_.garde2__AT1)))
(let ((.def_320 (and .def_243 .def_319)))
(let ((.def_241 (= .def_239 call__PRODUCER_CONSUMMER_.garde3__AT1)))
(let ((.def_321 (and .def_241 .def_320)))
(let ((.def_238 (= call__PRODUCER_CONSUMMER_.flby__AT1 call__PRODUCER_CONSUMMER_.xite2__AT1)))
(let ((.def_322 (and .def_238 .def_321)))
(let ((.def_236 (= call__PRODUCER_CONSUMMER_.flby2__AT1 call__PRODUCER_CONSUMMER_.xite7__AT1)))
(let ((.def_323 (and .def_236 .def_322)))
(let ((.def_235 (= call__PRODUCER_CONSUMMER_.a__AT0 call__PRODUCER_CONSUMMER_.flby3__AT1)))
(let ((.def_324 (and .def_235 .def_323)))
(let ((.def_234 (= call__PRODUCER_CONSUMMER_.flby4__AT1 call__PRODUCER_CONSUMMER_.xite9__AT1)))
(let ((.def_325 (and .def_234 .def_324)))
(let ((.def_232 (= call__PRODUCER_CONSUMMER_.flby5__AT1 call__PRODUCER_CONSUMMER_.xite11__AT1)))
(let ((.def_326 (and .def_232 .def_325)))
(let ((.def_229 (and call_Sofar.Sofar__AT0 call_excludes3.excludes__AT1)))
(let ((.def_230 (= call_Sofar.flby__AT1 .def_229)))
(let ((.def_327 (and .def_230 .def_326)))
(let ((.def_228 (= call_First.First__AT0 call_First.flby__AT1)))
(let ((.def_328 (and .def_228 .def_327)))
(let ((.def_207 (not env__AT1)))
(let ((.def_203 (* (- 1) a__AT1)))
(let ((.def_204 (+ o1__AT1 .def_203)))
(let ((.def_205 (+ o2__AT1 .def_204)))
(let ((.def_206 (<= .def_205 0)))
(let ((.def_208 (or .def_206 .def_207)))
(let ((.def_210 (= .def_208 _OK___AT1)))
(let ((.def_198 (= call__PRODUCER_CONSUMMER_.i__AT1 i__AT1)))
(let ((.def_211 (and .def_198 .def_210)))
(let ((.def_196 (= call__PRODUCER_CONSUMMER_.b__AT1 b__AT1)))
(let ((.def_212 (and .def_196 .def_211)))
(let ((.def_194 (= call__PRODUCER_CONSUMMER_.a__AT1 a__AT1)))
(let ((.def_213 (and .def_194 .def_212)))
(let ((.def_192 (= call__PRODUCER_CONSUMMER_.o1__AT1 o1__AT1)))
(let ((.def_214 (and .def_192 .def_213)))
(let ((.def_190 (= call__PRODUCER_CONSUMMER_.o2__AT1 o2__AT1)))
(let ((.def_215 (and .def_190 .def_214)))
(let ((.def_184 (<= call_First.First__AT1 0)))
(let ((.def_185 (not .def_184)))
(let ((.def_186 (and call_Sofar.Sofar__AT1 .def_185)))
(let ((.def_188 (= .def_186 env__AT1)))
(let ((.def_216 (and .def_188 .def_215)))
(let ((.def_181 (= call__PRODUCER_CONSUMMER_.xite6__AT1 call__PRODUCER_CONSUMMER_.xite7__AT1)))
(let ((.def_182 (or param_etat1__AT1 .def_181)))
(let ((.def_178 (= call__PRODUCER_CONSUMMER_.xite3__AT1 call__PRODUCER_CONSUMMER_.xite7__AT1)))
(let ((.def_180 (or .def_178 .def_179)))
(let ((.def_183 (and .def_180 .def_182)))
(let ((.def_217 (and .def_183 .def_216)))
(let ((.def_173 (= call__PRODUCER_CONSUMMER_.xite6__AT1 call__PRODUCER_CONSUMMER_.xite5__AT1)))
(let ((.def_174 (or param_etat2__AT1 .def_173)))
(let ((.def_169 (= call__PRODUCER_CONSUMMER_.xite4__AT1 call__PRODUCER_CONSUMMER_.xite6__AT1)))
(let ((.def_171 (or .def_169 .def_170)))
(let ((.def_175 (and .def_171 .def_174)))
(let ((.def_218 (and .def_175 .def_217)))
(let ((.def_166 (= call__PRODUCER_CONSUMMER_.i__AT1 call__PRODUCER_CONSUMMER_.flby__AT1)))
(let ((.def_219 (and .def_166 .def_218)))
(let ((.def_163 (= call__PRODUCER_CONSUMMER_.b__AT1 call__PRODUCER_CONSUMMER_.flby2__AT1)))
(let ((.def_220 (and .def_163 .def_219)))
(let ((.def_160 (= call__PRODUCER_CONSUMMER_.a__AT1 call__PRODUCER_CONSUMMER_.flby3__AT1)))
(let ((.def_221 (and .def_160 .def_220)))
(let ((.def_157 (= call__PRODUCER_CONSUMMER_.o1__AT1 call__PRODUCER_CONSUMMER_.flby4__AT1)))
(let ((.def_222 (and .def_157 .def_221)))
(let ((.def_154 (= call__PRODUCER_CONSUMMER_.o2__AT1 call__PRODUCER_CONSUMMER_.flby5__AT1)))
(let ((.def_223 (and .def_154 .def_222)))
(let ((.def_146 (and param_etat2__AT1 param_etat1__AT1)))
(let ((.def_145 (and param_etat3__AT1 param_etat1__AT1)))
(let ((.def_147 (or .def_145 .def_146)))
(let ((.def_143 (and param_etat2__AT1 param_etat3__AT1)))
(let ((.def_148 (or .def_143 .def_147)))
(let ((.def_149 (not .def_148)))
(let ((.def_151 (= .def_149 call_excludes3.excludes__AT1)))
(let ((.def_224 (and .def_151 .def_223)))
(let ((.def_140 (= call_Sofar.Sofar__AT1 call_Sofar.flby__AT1)))
(let ((.def_225 (and .def_140 .def_224)))
(let ((.def_137 (= call_First.First__AT1 call_First.flby__AT1)))
(let ((.def_226 (and .def_137 .def_225)))
(let ((.def_84 (not env__AT0)))
(let ((.def_80 (* (- 1) a__AT0)))
(let ((.def_81 (+ o1__AT0 .def_80)))
(let ((.def_82 (+ o2__AT0 .def_81)))
(let ((.def_83 (<= .def_82 0)))
(let ((.def_85 (or .def_83 .def_84)))
(let ((.def_87 (= .def_85 _OK___AT0)))
(let ((.def_73 (= call__PRODUCER_CONSUMMER_.i__AT0 i__AT0)))
(let ((.def_88 (and .def_73 .def_87)))
(let ((.def_71 (= call__PRODUCER_CONSUMMER_.b__AT0 b__AT0)))
(let ((.def_89 (and .def_71 .def_88)))
(let ((.def_69 (= call__PRODUCER_CONSUMMER_.a__AT0 a__AT0)))
(let ((.def_90 (and .def_69 .def_89)))
(let ((.def_67 (= call__PRODUCER_CONSUMMER_.o1__AT0 o1__AT0)))
(let ((.def_91 (and .def_67 .def_90)))
(let ((.def_65 (= call__PRODUCER_CONSUMMER_.o2__AT0 o2__AT0)))
(let ((.def_92 (and .def_65 .def_91)))
(let ((.def_59 (<= call_First.First__AT0 0)))
(let ((.def_60 (not .def_59)))
(let ((.def_61 (and call_Sofar.Sofar__AT0 .def_60)))
(let ((.def_63 (= .def_61 env__AT0)))
(let ((.def_93 (and .def_63 .def_92)))
(let ((.def_55 (= call__PRODUCER_CONSUMMER_.xite6__AT0 call__PRODUCER_CONSUMMER_.xite7__AT0)))
(let ((.def_56 (or param_etat1__AT0 .def_55)))
(let ((.def_53 (not param_etat1__AT0)))
(let ((.def_52 (= call__PRODUCER_CONSUMMER_.xite7__AT0 call__PRODUCER_CONSUMMER_.xite3__AT0)))
(let ((.def_54 (or .def_52 .def_53)))
(let ((.def_57 (and .def_54 .def_56)))
(let ((.def_94 (and .def_57 .def_93)))
(let ((.def_47 (= call__PRODUCER_CONSUMMER_.xite6__AT0 call__PRODUCER_CONSUMMER_.xite5__AT0)))
(let ((.def_48 (or param_etat2__AT0 .def_47)))
(let ((.def_44 (not param_etat2__AT0)))
(let ((.def_43 (= call__PRODUCER_CONSUMMER_.xite6__AT0 call__PRODUCER_CONSUMMER_.xite4__AT0)))
(let ((.def_45 (or .def_43 .def_44)))
(let ((.def_49 (and .def_45 .def_48)))
(let ((.def_95 (and .def_49 .def_94)))
(let ((.def_40 (= call__PRODUCER_CONSUMMER_.flby__AT0 call__PRODUCER_CONSUMMER_.i__AT0)))
(let ((.def_96 (and .def_40 .def_95)))
(let ((.def_37 (= call__PRODUCER_CONSUMMER_.flby2__AT0 call__PRODUCER_CONSUMMER_.b__AT0)))
(let ((.def_97 (and .def_37 .def_96)))
(let ((.def_34 (= call__PRODUCER_CONSUMMER_.flby3__AT0 call__PRODUCER_CONSUMMER_.a__AT0)))
(let ((.def_98 (and .def_34 .def_97)))
(let ((.def_31 (= call__PRODUCER_CONSUMMER_.flby4__AT0 call__PRODUCER_CONSUMMER_.o1__AT0)))
(let ((.def_99 (and .def_31 .def_98)))
(let ((.def_28 (= call__PRODUCER_CONSUMMER_.flby5__AT0 call__PRODUCER_CONSUMMER_.o2__AT0)))
(let ((.def_100 (and .def_28 .def_99)))
(let ((.def_20 (and param_etat2__AT0 param_etat1__AT0)))
(let ((.def_19 (and param_etat3__AT0 param_etat1__AT0)))
(let ((.def_21 (or .def_19 .def_20)))
(let ((.def_17 (and param_etat3__AT0 param_etat2__AT0)))
(let ((.def_22 (or .def_17 .def_21)))
(let ((.def_23 (not .def_22)))
(let ((.def_25 (= .def_23 call_excludes3.excludes__AT0)))
(let ((.def_101 (and .def_25 .def_100)))
(let ((.def_14 (= call_Sofar.flby__AT0 call_Sofar.Sofar__AT0)))
(let ((.def_102 (and .def_14 .def_101)))
(let ((.def_11 (= call_First.flby__AT0 call_First.First__AT0)))
(let ((.def_103 (and .def_11 .def_102)))
(let ((.def_227 (and .def_103 .def_226)))
(let ((.def_329 (and .def_227 .def_328)))
.def_329))))))))))))))))))))))))))))))))))))))))))))))))))))))))))))))))))))))))))))))))))))))))))))))))))))))))))))))))))))))))))))))))))))))))))))))))))))))))))))))))))))))))))))))))))))))))))))))))))))))))))))))))))) (state |call_First.flby__AT1| |call_First.First__AT1| |call_Sofar.flby__AT1| |call_Sofar.Sofar__AT1| |param_etat3__AT1| |param_etat2__AT1| |param_etat1__AT1| |call_excludes3.excludes__AT1| |call__PRODUCER_CONSUMMER_.flby5__AT1| |call__PRODUCER_CONSUMMER_.o2__AT1| |call__PRODUCER_CONSUMMER_.flby4__AT1| |call__PRODUCER_CONSUMMER_.o1__AT1| |call__PRODUCER_CONSUMMER_.flby3__AT1| |call__PRODUCER_CONSUMMER_.a__AT1| |call__PRODUCER_CONSUMMER_.flby2__AT1| |call__PRODUCER_CONSUMMER_.b__AT1| |call__PRODUCER_CONSUMMER_.flby__AT1| |call__PRODUCER_CONSUMMER_.i__AT1| |call__PRODUCER_CONSUMMER_.xite6__AT1| |call__PRODUCER_CONSUMMER_.xite4__AT1| |call__PRODUCER_CONSUMMER_.xite5__AT1| |call__PRODUCER_CONSUMMER_.xite7__AT1| |call__PRODUCER_CONSUMMER_.xite3__AT1| |env__AT1| |o2__AT1| |o1__AT1| |a__AT1| |b__AT1| |i__AT1| |_OK___AT1| |param_a_init__AT1| |call__PRODUCER_CONSUMMER_.xite11__AT1| |call__PRODUCER_CONSUMMER_.xite10__AT1| |call__PRODUCER_CONSUMMER_.xite2__AT1| |call__PRODUCER_CONSUMMER_.xite__AT1| |call__PRODUCER_CONSUMMER_.xite9__AT1| |call__PRODUCER_CONSUMMER_.xite8__AT1| |call__PRODUCER_CONSUMMER_.garde1__AT1| |call__PRODUCER_CONSUMMER_.garde2__AT1| |call__PRODUCER_CONSUMMER_.garde3__AT1|))))
(assert (forall ((|call__PRODUCER_CONSUMMER_.xite__AT0| Int) (|call__PRODUCER_CONSUMMER_.xite2__AT0| Int) (|call__PRODUCER_CONSUMMER_.garde1__AT0| Bool) (|call__PRODUCER_CONSUMMER_.garde2__AT0| Bool) (|call__PRODUCER_CONSUMMER_.garde3__AT0| Bool) (|param_a_init__AT1| Int) (|param_etat1__AT0| Bool) (|param_etat3__AT0| Bool) (|call__PRODUCER_CONSUMMER_.xite10__AT0| Int) (|call__PRODUCER_CONSUMMER_.xite11__AT0| Int) (|call__PRODUCER_CONSUMMER_.flby__AT0| Int) (|call__PRODUCER_CONSUMMER_.a__AT0| Int) (|call__PRODUCER_CONSUMMER_.flby2__AT0| Int) (|param_a_init__AT0| Int) (|call__PRODUCER_CONSUMMER_.flby3__AT0| Int) (|call__PRODUCER_CONSUMMER_.flby4__AT0| Int) (|call__PRODUCER_CONSUMMER_.flby5__AT0| Int) (|call_excludes3.excludes__AT0| Bool) (|call_Sofar.flby__AT0| Bool) (|call_First.flby__AT0| Int) (|_OK___AT0| Bool) (|env__AT0| Bool) (|a__AT0| Int) (|o1__AT0| Int) (|o2__AT0| Int) (|i__AT0| Int) (|call__PRODUCER_CONSUMMER_.i__AT0| Int) (|b__AT0| Int) (|call__PRODUCER_CONSUMMER_.b__AT0| Int) (|call__PRODUCER_CONSUMMER_.o1__AT0| Int) (|call__PRODUCER_CONSUMMER_.o2__AT0| Int) (|call_First.First__AT0| Int) (|call_Sofar.Sofar__AT0| Bool) (|call__PRODUCER_CONSUMMER_.xite7__AT0| Int) (|call__PRODUCER_CONSUMMER_.xite6__AT0| Int) (|call__PRODUCER_CONSUMMER_.xite3__AT0| Int) (|call__PRODUCER_CONSUMMER_.xite5__AT0| Int) (|call__PRODUCER_CONSUMMER_.xite4__AT0| Int) (|call__PRODUCER_CONSUMMER_.xite9__AT1| Int) (|param_etat2__AT1| Bool) (|call__PRODUCER_CONSUMMER_.xite8__AT1| Int) (|call__PRODUCER_CONSUMMER_.xite2__AT1| Int) (|param_etat1__AT1| Bool) (|call__PRODUCER_CONSUMMER_.xite__AT1| Int) (|call__PRODUCER_CONSUMMER_.xite11__AT1| Int) (|param_etat3__AT1| Bool) (|call__PRODUCER_CONSUMMER_.xite10__AT1| Int) (|call__PRODUCER_CONSUMMER_.garde1__AT1| Bool) (|call__PRODUCER_CONSUMMER_.xite3__AT1| Int) (|call__PRODUCER_CONSUMMER_.xite4__AT1| Int) (|call__PRODUCER_CONSUMMER_.garde2__AT1| Bool) (|call__PRODUCER_CONSUMMER_.xite5__AT1| Int) (|call__PRODUCER_CONSUMMER_.garde3__AT1| Bool) (|call__PRODUCER_CONSUMMER_.flby__AT1| Int) (|call__PRODUCER_CONSUMMER_.xite7__AT1| Int) (|call__PRODUCER_CONSUMMER_.flby2__AT1| Int) (|call__PRODUCER_CONSUMMER_.flby3__AT1| Int) (|call__PRODUCER_CONSUMMER_.flby4__AT1| Int) (|call__PRODUCER_CONSUMMER_.flby5__AT1| Int) (|call_excludes3.excludes__AT1| Bool) (|call_Sofar.flby__AT1| Bool) (|call_First.flby__AT1| Int) (|_OK___AT1| Bool) (|env__AT1| Bool) (|a__AT1| Int) (|o1__AT1| Int) (|o2__AT1| Int) (|i__AT1| Int) (|call__PRODUCER_CONSUMMER_.i__AT1| Int) (|b__AT1| Int) (|call__PRODUCER_CONSUMMER_.b__AT1| Int) (|call__PRODUCER_CONSUMMER_.a__AT1| Int) (|call__PRODUCER_CONSUMMER_.o1__AT1| Int) (|call__PRODUCER_CONSUMMER_.o2__AT1| Int) (|call_First.First__AT1| Int) (|call_Sofar.Sofar__AT1| Bool) (|call__PRODUCER_CONSUMMER_.xite6__AT1| Int) (|call__PRODUCER_CONSUMMER_.xite8__AT0| Int) (|call__PRODUCER_CONSUMMER_.xite9__AT0| Int) (|param_etat2__AT0| Bool)) (=> (state |call_First.flby__AT0| |call_First.First__AT0| |call_Sofar.flby__AT0| |call_Sofar.Sofar__AT0| |param_etat3__AT0| |param_etat2__AT0| |param_etat1__AT0| |call_excludes3.excludes__AT0| |call__PRODUCER_CONSUMMER_.flby5__AT0| |call__PRODUCER_CONSUMMER_.o2__AT0| |call__PRODUCER_CONSUMMER_.flby4__AT0| |call__PRODUCER_CONSUMMER_.o1__AT0| |call__PRODUCER_CONSUMMER_.flby3__AT0| |call__PRODUCER_CONSUMMER_.a__AT0| |call__PRODUCER_CONSUMMER_.flby2__AT0| |call__PRODUCER_CONSUMMER_.b__AT0| |call__PRODUCER_CONSUMMER_.flby__AT0| |call__PRODUCER_CONSUMMER_.i__AT0| |call__PRODUCER_CONSUMMER_.xite6__AT0| |call__PRODUCER_CONSUMMER_.xite4__AT0| |call__PRODUCER_CONSUMMER_.xite5__AT0| |call__PRODUCER_CONSUMMER_.xite7__AT0| |call__PRODUCER_CONSUMMER_.xite3__AT0| |env__AT0| |o2__AT0| |o1__AT0| |a__AT0| |b__AT0| |i__AT0| |_OK___AT0| |param_a_init__AT0| |call__PRODUCER_CONSUMMER_.xite11__AT0| |call__PRODUCER_CONSUMMER_.xite10__AT0| |call__PRODUCER_CONSUMMER_.xite2__AT0| |call__PRODUCER_CONSUMMER_.xite__AT0| |call__PRODUCER_CONSUMMER_.xite9__AT0| |call__PRODUCER_CONSUMMER_.xite8__AT0| |call__PRODUCER_CONSUMMER_.garde1__AT0| |call__PRODUCER_CONSUMMER_.garde2__AT0| |call__PRODUCER_CONSUMMER_.garde3__AT0|) _OK___AT0)))
(check-sat)
